136 14 29 110 176 131 43 12 120 188 90 35 164 25 178 87 191 58 63 60 19 142 78 127 80 30 128 146 177 182 170 197 28 194 101 135 157 167 125 62 185 126 186 89 4 81 27 105 107 154 31 152 95 184 159 36 175 179 22 129 72 153 23 65 115 160 193 166 140 5 155 45 118 123 77 56 8 92 143 6 38 174 132 20 55 183 69 190 150 147 138 42 48 83 106 7 121 64 192 162 109 51 122 99 113 66 70 168 94 52 47 172 33 16 71 17 173 133 1 111 199 171 104 158 3 85 32 112 180 10 74 79 37 0 102 134 187 11 130 57 148 97 40 116 26 100 181 117 84 137 163 59 75 103 139 96 145 46 124 13 151 44 54 68 2 189 39 108 41 88 93 161 165 144 119 156 86 195 169 67 15 61 196 50 53 21 9 82 73 49 18 114 91 76 98 149 34 24 141 198 

